1
150
39
26 1
27 1
31 1
35 1
39 2
42 2
43 2
45 1
48 1
50 1
51 1
53 1
55 2
56 1
59 1
60 1
62 1
63 5
64 1
65 2
66 1
68 2
71 1
73 1
74 1
75 1
76 1
78 1
82 1
85 1
86 1
89 1
91 1
93 1
96 1
97 1
98 1
99 2
100 1
